     Program PWSCF v.6.6 starts on  9Feb2024 at  3: 9: 9

     Fft bands division:     nmany     =       1
     Waiting for input...
     Reading input from standard input

     Current dimensions of program PWSCF are:
     Max number of different atomic species (ntypx) = 10
     Max number of k-points (npk) =  40000
     Max angular momentum in pseudopotentials (lmaxx) =  3
     file K.pbe-spn-kjpaw_psl.1.0.0.UPF: wavefunction(s)  3S renormalized

     Subspace diagonalization in iterative solution of the eigenvalue problem:
     a serial algorithm will be used

     bravais-lattice index     =            0
     lattice parameter (alat)  =      20.1787  a.u.
     unit-cell volume          =    8216.3521 (a.u.)^3
     number of atoms/cell      =           16
     number of atomic types    =            1
     number of electrons       =       144.00
     number of Kohn-Sham states=           86
     kinetic-energy cutoff     =      60.0000  Ry
     charge density cutoff     =     300.0000  Ry
     convergence threshold     =      1.0E-06
     mixing beta               =       0.7000
     number of iterations used =            8  plain     mixing
     Exchange-correlation= SLA PW PBX PBC
                           (   1   4   3   4   0   0   0)

     celldm(1)=  20.178692  celldm(2)=   0.000000  celldm(3)=   0.000000
     celldm(4)=   0.000000  celldm(5)=   0.000000  celldm(6)=   0.000000

     crystal axes: (cart. coord. in units of alat)
               a(1) = (   1.000000   0.000000   0.000000 )
               a(2) = (   0.000000   1.000000   0.000000 )
               a(3) = (   0.000000   0.000000   1.000000 )

     reciprocal axes: (cart. coord. in units 2 pi/alat)
               b(1) = (  1.000000  0.000000  0.000000 )
               b(2) = (  0.000000  1.000000  0.000000 )
               b(3) = (  0.000000  0.000000  1.000000 )

     PseudoPot. # 1 for K  read from file:
     /global/home/hpc5146/K.pbe-spn-kjpaw_psl.1.0.0.UPF
     MD5 check sum: 7d58810084cac21f60fbe77ea2b688fd
     Pseudo is Projector augmented-wave + core cor, Zval =  9.0
     Generated using "atomic" code by A. Dal Corso v.5.1
     Shape of augmentation charge: PSQ
     Using radial grid of 1165 points,  6 beta functions with:
                l(1) =   0
                l(2) =   0
                l(3) =   1
                l(4) =   1
                l(5) =   2
                l(6) =   2
     Q(r) pseudized with 0 coefficients

     atomic species   valence    mass     pseudopotential
        K              9.00    39.09830     K ( 1.00)

     No symmetry found

   Cartesian axes

     site n.     atom                  positions (alat units)
         1           K   tau(   1) = (   0.3882129   0.2804380   0.1061663  )
         2           K   tau(   2) = (   0.4396928   0.0718005   0.5306311  )
         3           K   tau(   3) = (   0.3769874   0.4501418   0.4739784  )
         4           K   tau(   4) = (   0.9910559   0.8487900   0.1438901  )
         5           K   tau(   5) = (   0.7373162   0.2315236   0.1571669  )
         6           K   tau(   6) = (   0.9889669   0.4630254   0.4138273  )
         7           K   tau(   7) = (   0.3256968   0.6179544   0.2981170  )
         8           K   tau(   8) = (   0.0038262   0.5412614   0.8825675  )
         9           K   tau(   9) = (   0.4038833   0.9264938   0.1991806  )
        10           K   tau(  10) = (   0.7251861   0.6454361   0.2395306  )
        11           K   tau(  11) = (   0.6853596   0.7384070   0.6051051  )
        12           K   tau(  12) = (   0.1350726   0.2123557   0.8259623  )
        13           K   tau(  13) = (   0.6845784   0.3429957   0.7869767  )
        14           K   tau(  14) = (   0.0425178   0.9168115   0.5206636  )
        15           K   tau(  15) = (   0.3504360   0.7018024   0.9364307  )
        16           K   tau(  16) = (   0.7212111   0.0107625   0.8798056  )

     number of k points=    36  Gaussian smearing, width (Ry)=  0.0100
                       cart. coord. in units 2pi/alat
        k(    1) = (   0.0000000   0.0000000   0.0000000), wk =   0.0312500
        k(    2) = (   0.0000000   0.0000000   0.2500000), wk =   0.0625000
        k(    3) = (   0.0000000   0.0000000  -0.5000000), wk =   0.0312500
        k(    4) = (   0.0000000   0.2500000   0.2500000), wk =   0.0625000
        k(    5) = (   0.0000000   0.2500000  -0.5000000), wk =   0.0625000
        k(    6) = (   0.0000000  -0.5000000  -0.5000000), wk =   0.0312500
        k(    7) = (   0.2500000   0.2500000   0.2500000), wk =   0.0625000
        k(    8) = (   0.2500000   0.2500000  -0.5000000), wk =   0.0625000
        k(    9) = (   0.2500000  -0.5000000  -0.5000000), wk =   0.0625000
        k(   10) = (  -0.5000000  -0.5000000  -0.5000000), wk =   0.0312500
        k(   11) = (   0.2500000   0.0000000   0.0000000), wk =   0.0625000
        k(   12) = (   0.0000000   0.2500000   0.0000000), wk =   0.0625000
        k(   13) = (  -0.5000000   0.0000000   0.0000000), wk =   0.0312500
        k(   14) = (   0.0000000  -0.5000000   0.0000000), wk =   0.0312500
        k(   15) = (   0.0000000  -0.2500000   0.2500000), wk =   0.0625000
        k(   16) = (   0.2500000   0.0000000  -0.2500000), wk =   0.0625000
        k(   17) = (  -0.2500000   0.0000000  -0.2500000), wk =   0.0625000
        k(   18) = (   0.2500000  -0.2500000   0.0000000), wk =   0.0625000
        k(   19) = (  -0.2500000  -0.2500000   0.0000000), wk =   0.0625000
        k(   20) = (   0.2500000   0.0000000   0.5000000), wk =   0.0625000
        k(   21) = (  -0.5000000  -0.2500000   0.0000000), wk =   0.0625000
        k(   22) = (   0.0000000  -0.5000000   0.2500000), wk =   0.0625000
        k(   23) = (   0.2500000  -0.5000000   0.0000000), wk =   0.0625000
        k(   24) = (  -0.5000000   0.0000000   0.2500000), wk =   0.0625000
        k(   25) = (  -0.5000000   0.0000000   0.5000000), wk =   0.0312500
        k(   26) = (  -0.5000000   0.5000000   0.0000000), wk =   0.0312500
        k(   27) = (  -0.2500000  -0.2500000   0.2500000), wk =   0.0625000
        k(   28) = (  -0.2500000   0.2500000  -0.2500000), wk =   0.0625000
        k(   29) = (   0.2500000  -0.2500000  -0.2500000), wk =   0.0625000
        k(   30) = (  -0.2500000   0.2500000   0.5000000), wk =   0.0625000
        k(   31) = (  -0.5000000  -0.2500000   0.2500000), wk =   0.0625000
        k(   32) = (   0.5000000  -0.2500000  -0.2500000), wk =   0.0625000
        k(   33) = (  -0.2500000  -0.5000000   0.2500000), wk =   0.0625000
        k(   34) = (  -0.2500000   0.5000000  -0.2500000), wk =   0.0625000
        k(   35) = (  -0.5000000   0.2500000   0.5000000), wk =   0.0625000
        k(   36) = (  -0.5000000   0.5000000   0.2500000), wk =   0.0625000

     Check: negative core charge=   -0.000001

     Initial potential from superposition of free atoms

     starting charge  143.69870, renormalised to  144.00000
     Starting wfcs are  128 randomized atomic wfcs
     Checking if some PAW data can be deallocated...

     Self-consistent Calculation

     iteration #  1     ecut=    60.00 Ry     beta= 0.70
     Davidson diagonalization with overlap
     ethr =  1.00E-02,  avg # of iterations =  3.9

     Threshold (ethr) on eigenvalues was too large:
     Diagonalizing with lowered threshold

     Davidson diagonalization with overlap
     c_bands:  1 eigenvalues not converged
     c_bands:  1 eigenvalues not converged
     ethr =  2.74E-05,  avg # of iterations = 12.9

     total energy              =   -1807.92850820 Ry
     estimated scf accuracy    <       0.05507893 Ry

[...]

     total energy              =   -1807.94552226 Ry
     estimated scf accuracy    <       0.00000848 Ry

     iteration #  9     ecut=    60.00 Ry     beta= 0.70
     Davidson diagonalization with overlap
     ethr =  5.75E-09,  avg # of iterations =  2.5

     End of self-consistent calculation

          k = 0.0000 0.0000 0.0000 ( 64373 PWs)   bands (ev):

   -31.3885 -31.0399 -30.6819 -30.6373 -30.6361 -30.6223 -30.6043 -30.6020
   -30.5903 -30.5890 -30.5841 -30.5745 -30.5680 -30.5663 -30.5468 -30.5380
   -15.6563 -14.7821 -14.7698 -14.5028 -14.4871 -14.2793 -14.2171 -14.2132
   -14.1864 -14.1703 -14.1653 -14.1519 -14.1431 -14.1372 -14.1307 -14.1180
   -14.1118 -14.1066 -14.1047 -14.0977 -14.0950 -14.0844 -14.0819 -14.0804
   -14.0718 -14.0678 -14.0653 -14.0602 -14.0590 -14.0558 -14.0540 -14.0527
   -14.0501 -14.0484 -14.0460 -14.0430 -14.0372 -14.0350 -14.0318 -14.0300
   -14.0241 -14.0218 -14.0108 -14.0082 -14.0010 -14.0001 -13.9894 -13.9856
    -0.4507   0.8055   0.9063   0.9770   1.0178   1.0561   1.2086   2.0681
     2.0893   2.1559   2.1707   2.2058   2.2145   2.2461   2.2796   2.3042
     2.3430   2.3995   2.5060   3.0215   3.1073   3.1375

[...]

          k =-0.5000-0.5000-0.5000 ( 64552 PWs)   bands (ev):

[...]

          k = 0.5000-0.2500-0.2500 ( 64426 PWs)   bands (ev):

[...]

          k =-0.5000 0.5000 0.2500 ( 64524 PWs)   bands (ev):

   -31.3885 -31.0399 -30.6819 -30.6373 -30.6361 -30.6223 -30.6042 -30.6021
   -30.5903 -30.5890 -30.5841 -30.5745 -30.5680 -30.5663 -30.5468 -30.5380
   -15.6564 -14.7822 -14.7698 -14.5035 -14.4870 -14.2799 -14.2169 -14.2093
   -14.1860 -14.1696 -14.1635 -14.1553 -14.1437 -14.1344 -14.1293 -14.1185
   -14.1137 -14.1068 -14.1041 -14.0989 -14.0944 -14.0862 -14.0818 -14.0804
   -14.0732 -14.0688 -14.0665 -14.0620 -14.0585 -14.0576 -14.0528 -14.0515
   -14.0493 -14.0469 -14.0459 -14.0423 -14.0364 -14.0341 -14.0327 -14.0307
   -14.0223 -14.0205 -14.0140 -14.0085 -14.0024 -13.9990 -13.9893 -13.9856
     0.2621   0.3306   0.3512   0.5353   1.0449   1.0534   1.1014   1.2681
     2.2247   2.2564   2.2818   2.4231   2.6614   2.6892   2.7359   2.7857
     2.8658   2.8992   2.9388   2.9994   3.1008   3.1782

     the Fermi energy is     1.7230 ev

!    total energy              =   -1807.94552343 Ry

     total all-electron energy =    -19267.764913 Ry
     estimated scf accuracy    <       0.00000074 Ry
     smearing contrib. (-TS)   =      -0.00877499 Ry
     internal energy E=F+TS    =   -1807.93674845 Ry

     The total energy is F=E-TS. E is the sum of the following terms:
     one-electron contribution =    -637.38068959 Ry
     hartree contribution      =     334.99298775 Ry
     xc contribution           =    -178.73579832 Ry
     ewald contribution        =    -440.09267969 Ry
     one-center paw contrib.   =    -886.72056859 Ry

     convergence has been achieved in   9 iterations

     Forces acting on atoms (cartesian axes, Ry/au):

     atom    1 type  1   force =    -0.00818688    0.00503027   -0.00463788
     atom    2 type  1   force =     0.00259547   -0.00099645    0.00716150
     atom    3 type  1   force =     0.01864113   -0.04435612    0.05781062
     atom    4 type  1   force =     0.00737497    0.00898009   -0.00518419
     atom    5 type  1   force =     0.01116162    0.00153272    0.01539398
     atom    6 type  1   force =    -0.00119896   -0.00780730    0.00589761
     atom    7 type  1   force =    -0.01989551    0.03928559   -0.03881686
     atom    8 type  1   force =    -0.00341660    0.00711010    0.00072760
     atom    9 type  1   force =     0.00606462    0.01300904   -0.00131987
     atom   10 type  1   force =    -0.01143269   -0.00242619   -0.00861054
     atom   11 type  1   force =    -0.00279542   -0.00254095    0.00266366
     atom   12 type  1   force =     0.00060617   -0.00961312   -0.00367272
     atom   13 type  1   force =    -0.00575433    0.01075860   -0.00972363
     atom   14 type  1   force =     0.00138121    0.00073098    0.00449914
     atom   15 type  1   force =     0.00529913   -0.00359635   -0.01915030
     atom   16 type  1   force =    -0.00044391   -0.01510091   -0.00303811

     Total force =     0.000000     Total SCF correction =     0.000000

     Computing stress (Cartesian axis) and pressure

          total   stress  (Ry/bohr**3)                   (kbar)     P=        5.53
   0.00001594   0.00000151   0.00001799            2.34        0.22        2.65
   0.00000151   0.00005592  -0.00001122            0.22        8.23       -1.65
   0.00001799  -0.00001122   0.00004094            2.65       -1.65        6.02

     General routines

     Parallel routines

   This run was terminated on:   4:26: 5   9Feb2024

   JOB DONE.