     Program PWSCF v.6.6 starts on 23Mar2024 at  1:26:38

     Fft bands division:     nmany     =       1
     Waiting for input...
     Reading input from standard input

     Current dimensions of program PWSCF are:
     Max number of different atomic species (ntypx) = 10
     Max number of k-points (npk) =  40000
     Max angular momentum in pseudopotentials (lmaxx) =  3
     file K.pbe-spn-kjpaw_psl.1.0.0.UPF: wavefunction(s)  3S renormalized

     Subspace diagonalization in iterative solution of the eigenvalue problem:
     a serial algorithm will be used

     bravais-lattice index     =            0
     lattice parameter (alat)  =      31.4668  a.u.
     unit-cell volume          =   31157.0699 (a.u.)^3
     number of atoms/cell      =           54
     number of atomic types    =            1
     number of electrons       =       486.00
     number of Kohn-Sham states=          292
     kinetic-energy cutoff     =      60.0000  Ry
     charge density cutoff     =     300.0000  Ry
     convergence threshold     =      1.0E-06
     mixing beta               =       0.7000
     number of iterations used =            8  plain     mixing
     Exchange-correlation= SLA PW PBX PBC
                           (   1   4   3   4   0   0   0)

     celldm(1)=  31.466773  celldm(2)=   0.000000  celldm(3)=   0.000000
     celldm(4)=   0.000000  celldm(5)=   0.000000  celldm(6)=   0.000000

     crystal axes: (cart. coord. in units of alat)
               a(1) = (   1.000000   0.000000   0.000000 )
               a(2) = (   0.000000   1.000000   0.000000 )
               a(3) = (   0.000000   0.000000   1.000000 )

     reciprocal axes: (cart. coord. in units 2 pi/alat)
               b(1) = (  1.000000  0.000000  0.000000 )
               b(2) = (  0.000000  1.000000  0.000000 )
               b(3) = (  0.000000  0.000000  1.000000 )

     PseudoPot. # 1 for K  read from file:
     /global/home/hpc5146/K.pbe-spn-kjpaw_psl.1.0.0.UPF
     MD5 check sum: 7d58810084cac21f60fbe77ea2b688fd
     Pseudo is Projector augmented-wave + core cor, Zval =  9.0
     Generated using "atomic" code by A. Dal Corso v.5.1
     Shape of augmentation charge: PSQ
     Using radial grid of 1165 points,  6 beta functions with:
                l(1) =   0
                l(2) =   0
                l(3) =   1
                l(4) =   1
                l(5) =   2
                l(6) =   2
     Q(r) pseudized with 0 coefficients

     atomic species   valence    mass     pseudopotential
        K              9.00    39.09830     K ( 1.00)

     No symmetry found

   Cartesian axes

     site n.     atom                  positions (alat units)
         1           K   tau(   1) = (   0.8450297   0.1454821   0.1350095  )
         2           K   tau(   2) = (   0.1558082   0.2746472   0.1242479  )
         3           K   tau(   3) = (   0.4055285   0.2612720   0.1142998  )
         4           K   tau(   4) = (   0.2638841   0.4912770   0.2234883  )
         5           K   tau(   5) = (   0.6475464   0.4419623   0.1373068  )
         6           K   tau(   6) = (   0.9256185   0.4332134   0.1800786  )
         7           K   tau(   7) = (   0.9583872   0.2957161   0.0168762  )
         8           K   tau(   8) = (   0.4568106   0.6547743   0.2146192  )
         9           K   tau(   9) = (   0.9847968   0.7328499   0.0690618  )
        10           K   tau(  10) = (   0.1535467   0.9500231   0.0601005  )
        11           K   tau(  11) = (   0.4264698   0.9110302   0.1703354  )
        12           K   tau(  12) = (   0.6422067   0.7645362   0.1380467  )
        13           K   tau(  13) = (   0.0930417   0.1163487   0.3327350  )
        14           K   tau(  14) = (   0.3364453   0.0532958   0.3748613  )
        15           K   tau(  15) = (   0.6187659   0.0728982   0.2633940  )
        16           K   tau(  16) = (   0.8792516   0.2126990   0.4502747  )
        17           K   tau(  17) = (   0.1029737   0.4151254   0.4225565  )
        18           K   tau(  18) = (   0.5538120   0.3282044   0.3443238  )
        19           K   tau(  19) = (   0.8045989   0.4216448   0.4225100  )
        20           K   tau(  20) = (   0.3453370   0.6293663   0.4899772  )
        21           K   tau(  21) = (   0.5754402   0.5679331   0.4410759  )
        22           K   tau(  22) = (   0.9231360   0.6663375   0.3844088  )
        23           K   tau(  23) = (   0.1974772   0.8349786   0.3668264  )
        24           K   tau(  24) = (   0.5010151   0.8302903   0.4289674  )
        25           K   tau(  25) = (   0.8601156   0.9240781   0.3433293  )
        26           K   tau(  26) = (   0.1490163   0.1387677   0.5641032  )
        27           K   tau(  27) = (   0.6164521   0.1559394   0.5328851  )
        28           K   tau(  28) = (   0.8150508   0.0874740   0.6562688  )
        29           K   tau(  29) = (   0.1361210   0.3560579   0.6447967  )
        30           K   tau(  30) = (   0.3959746   0.3828914   0.5325883  )
        31           K   tau(  31) = (   0.6042470   0.4056889   0.6855737  )
        32           K   tau(  32) = (   0.8761418   0.3600352   0.6775752  )
        33           K   tau(  33) = (   0.0473870   0.5926369   0.7275246  )
        34           K   tau(  34) = (   0.3170761   0.6824273   0.7479533  )
        35           K   tau(  35) = (   0.5238297   0.7099948   0.6709463  )
        36           K   tau(  36) = (   0.7887158   0.6982064   0.6406325  )
        37           K   tau(  37) = (   0.0235079   0.8965384   0.5219356  )
        38           K   tau(  38) = (   0.4401669   0.9726353   0.6111537  )
        39           K   tau(  39) = (   0.7007762   0.8585926   0.5478406  )
        40           K   tau(  40) = (   0.6450326   0.9910884   0.7296360  )
        41           K   tau(  41) = (   0.2492548   0.1611147   0.8339022  )
        42           K   tau(  42) = (   0.4523219   0.1867317   0.7457413  )
        43           K   tau(  43) = (   0.5061942   0.0651909   0.9951197  )
        44           K   tau(  44) = (   0.0541570   0.4632108   0.9103039  )
        45           K   tau(  45) = (   0.2749080   0.4229468   0.8400882  )
        46           K   tau(  46) = (   0.5603493   0.3476623   0.9204734  )
        47           K   tau(  47) = (   0.2099894   0.6676709   0.9354606  )
        48           K   tau(  48) = (   0.4623652   0.5939451   0.9453053  )
        49           K   tau(  49) = (   0.7892882   0.5107552   0.9135051  )
        50           K   tau(  50) = (   0.8575683   0.7465664   0.8265853  )
        51           K   tau(  51) = (   0.1848437   0.9149045   0.7704283  )
        52           K   tau(  52) = (   0.4347269   0.8385036   0.9173443  )
        53           K   tau(  53) = (   0.7459496   0.9179501   0.9637379  )
        54           K   tau(  54) = (   0.9815436   0.9438872   0.8418790  )

     number of k points=    14  Gaussian smearing, width (Ry)=  0.0100
                       cart. coord. in units 2pi/alat
        k(    1) = (   0.0000000   0.0000000   0.0000000), wk =   0.0740741
        k(    2) = (   0.0000000   0.0000000   0.3333333), wk =   0.1481481
        k(    3) = (   0.0000000   0.3333333   0.3333333), wk =   0.1481481
        k(    4) = (   0.3333333   0.3333333   0.3333333), wk =   0.1481481
        k(    5) = (   0.3333333   0.0000000   0.0000000), wk =   0.1481481
        k(    6) = (   0.0000000   0.3333333   0.0000000), wk =   0.1481481
        k(    7) = (   0.0000000  -0.3333333   0.3333333), wk =   0.1481481
        k(    8) = (   0.3333333   0.0000000  -0.3333333), wk =   0.1481481
        k(    9) = (  -0.3333333   0.0000000  -0.3333333), wk =   0.1481481
        k(   10) = (   0.3333333  -0.3333333   0.0000000), wk =   0.1481481
        k(   11) = (  -0.3333333  -0.3333333   0.0000000), wk =   0.1481481
        k(   12) = (  -0.3333333  -0.3333333   0.3333333), wk =   0.1481481
        k(   13) = (  -0.3333333   0.3333333  -0.3333333), wk =   0.1481481
        k(   14) = (   0.3333333  -0.3333333  -0.3333333), wk =   0.1481481

     Check: negative core charge=   -0.000001

     Initial potential from superposition of free atoms

     starting charge  484.98312, renormalised to  486.00000
     Starting wfcs are  432 randomized atomic wfcs
     Checking if some PAW data can be deallocated...

     Self-consistent Calculation

     iteration #  1     ecut=    60.00 Ry     beta= 0.70
     Davidson diagonalization with overlap
     ethr =  1.00E-02,  avg # of iterations =  3.4

     Threshold (ethr) on eigenvalues was too large:
     Diagonalizing with lowered threshold

     Davidson diagonalization with overlap
     c_bands:  1 eigenvalues not converged
     ethr =  4.12E-05,  avg # of iterations = 15.7

     total energy              =   -6101.93190401 Ry
     estimated scf accuracy    <       0.26550696 Ry

[...]

     iteration #  6     ecut=    60.00 Ry     beta= 0.70
     Davidson diagonalization with overlap
     c_bands:  1 eigenvalues not converged
     c_bands:  1 eigenvalues not converged
     ethr =  8.17E-06,  avg # of iterations = 12.5

[...]

     iteration #  8     ecut=    60.00 Ry     beta= 0.70
     Davidson diagonalization with overlap
     c_bands:  1 eigenvalues not converged
     c_bands:  1 eigenvalues not converged
     c_bands:  1 eigenvalues not converged
     ethr =  3.66E-07,  avg # of iterations = 13.6

[...]

     total energy              =   -6102.05673729 Ry
     estimated scf accuracy    <       0.00000241 Ry

     iteration # 16     ecut=    60.00 Ry     beta= 0.70
     Davidson diagonalization with overlap
     ethr =  4.96E-10,  avg # of iterations =  2.0

     End of self-consistent calculation

          k = 0.0000 0.0000 0.0000 (244113 PWs)   bands (ev):

   -31.3817 -31.3647 -31.2376 -31.2366 -31.2341 -31.2068 -31.1784 -31.1646
   -31.1595 -31.1536 -31.1500 -31.1487 -31.1386 -31.1307 -31.1240 -31.1231
   -31.1173 -31.1167 -31.1084 -31.1056 -31.1014 -31.0940 -31.0927 -31.0903
   -31.0855 -31.0848 -31.0782 -31.0659 -31.0642 -31.0620 -31.0598 -31.0591
   -31.0574 -31.0540 -31.0511 -31.0509 -31.0485 -31.0454 -31.0388 -31.0381
   -31.0336 -31.0239 -31.0231 -31.0221 -31.0021 -31.0000 -30.9959 -30.9806
   -30.9692 -30.9555 -30.9514 -30.9508 -30.9460 -30.8969 -15.0177 -14.9569
   -14.9194 -14.9120 -14.8700 -14.8540 -14.8157 -14.7918 -14.7502 -14.7285
   -14.7238 -14.7192 -14.7088 -14.7085 -14.7018 -14.6996 -14.6982 -14.6782
   -14.6750 -14.6740 -14.6700 -14.6665 -14.6639 -14.6565 -14.6562 -14.6545
   -14.6451 -14.6428 -14.6423 -14.6376 -14.6370 -14.6353 -14.6346 -14.6335
   -14.6316 -14.6292 -14.6290 -14.6280 -14.6269 -14.6235 -14.6232 -14.6229
   -14.6219 -14.6214 -14.6196 -14.6178 -14.6160 -14.6133 -14.6122 -14.6103
   -14.5980 -14.5965 -14.5939 -14.5919 -14.5904 -14.5892 -14.5883 -14.5866
   -14.5858 -14.5858 -14.5847 -14.5839 -14.5810 -14.5806 -14.5787 -14.5785
   -14.5767 -14.5759 -14.5742 -14.5735 -14.5707 -14.5699 -14.5690 -14.5668
   -14.5651 -14.5635 -14.5631 -14.5588 -14.5584 -14.5578 -14.5571 -14.5560
   -14.5540 -14.5529 -14.5524 -14.5514 -14.5493 -14.5449 -14.5435 -14.5424
   -14.5415 -14.5408 -14.5401 -14.5362 -14.5357 -14.5344 -14.5324 -14.5318
   -14.5310 -14.5304 -14.5300 -14.5273 -14.5265 -14.5251 -14.5243 -14.5234
   -14.5232 -14.5228 -14.5219 -14.5209 -14.5185 -14.5167 -14.5159 -14.5136
   -14.5112 -14.5088 -14.5083 -14.5069 -14.5058 -14.5041 -14.5037 -14.5026
   -14.5004 -14.4988 -14.4983 -14.4959 -14.4952 -14.4949 -14.4942 -14.4930
   -14.4922 -14.4899 -14.4877 -14.4836 -14.4781 -14.4780 -14.4749 -14.4748
   -14.4732 -14.4728 -14.4708 -14.4683 -14.4584 -14.4565 -14.4455 -14.4436
   -14.4408 -14.4352 -14.4345 -14.4337 -14.4311 -14.4302 -14.4292 -14.4266
   -14.4231 -14.4187 -14.4168 -14.4117 -14.4076 -14.3914 -14.3799 -14.3669
    -0.7537  -0.2787  -0.2127  -0.1703  -0.1067  -0.0830  -0.0555   0.2463
     0.3250   0.3419   0.3700   0.4049   0.4443   0.4899   0.5204   0.5378
     0.5659   0.5854   0.6809   0.8562   0.9570   0.9679   1.0077   1.0381
     1.0573   1.1489   1.1715   1.4602   1.4783   1.4969   1.5495   1.5728
     1.6055   1.8524   1.8631   1.8688   1.8888   1.9160   1.9211   1.9278
     1.9547   1.9717   1.9812   1.9876   2.0066   2.0187   2.0210   2.0472
     2.0548   2.0631   2.0750   2.0897   2.0973   2.1092   2.1199   2.1370
     2.2039   2.2972   2.3292   2.3502   2.3622   2.3704   2.3841   2.3982
     2.4138   2.4289   2.4340   2.4592   2.4688   2.4961   2.5168   2.5192
     2.5400   2.5595   2.5772   2.6009

[...]

          k =-0.3333 0.0000-0.3333 (244527 PWs)   bands (ev):

[...]

          k =-0.3333 0.3333-0.3333 (244557 PWs)   bands (ev):

[...]

          k = 0.3333-0.3333-0.3333 (244557 PWs)   bands (ev):

   -31.3817 -31.3647 -31.2376 -31.2366 -31.2341 -31.2068 -31.1784 -31.1646
   -31.1595 -31.1536 -31.1500 -31.1487 -31.1386 -31.1307 -31.1240 -31.1231
   -31.1173 -31.1167 -31.1084 -31.1056 -31.1015 -31.0940 -31.0927 -31.0903
   -31.0855 -31.0848 -31.0782 -31.0659 -31.0642 -31.0620 -31.0598 -31.0591
   -31.0574 -31.0540 -31.0511 -31.0509 -31.0485 -31.0454 -31.0388 -31.0381
   -31.0336 -31.0239 -31.0231 -31.0221 -31.0021 -31.0000 -30.9959 -30.9807
   -30.9692 -30.9555 -30.9514 -30.9508 -30.9460 -30.8969 -15.0177 -14.9569
   -14.9194 -14.9120 -14.8700 -14.8540 -14.8157 -14.7918 -14.7502 -14.7285
   -14.7238 -14.7193 -14.7088 -14.7085 -14.7018 -14.6996 -14.6982 -14.6782
   -14.6749 -14.6739 -14.6701 -14.6665 -14.6639 -14.6566 -14.6562 -14.6545
   -14.6451 -14.6428 -14.6425 -14.6376 -14.6370 -14.6353 -14.6345 -14.6335
   -14.6316 -14.6292 -14.6289 -14.6278 -14.6268 -14.6234 -14.6233 -14.6230
   -14.6221 -14.6214 -14.6197 -14.6175 -14.6161 -14.6132 -14.6122 -14.6103
   -14.5983 -14.5972 -14.5940 -14.5919 -14.5900 -14.5895 -14.5881 -14.5870
   -14.5866 -14.5858 -14.5841 -14.5835 -14.5810 -14.5804 -14.5788 -14.5778
   -14.5767 -14.5758 -14.5750 -14.5726 -14.5705 -14.5699 -14.5689 -14.5670
   -14.5647 -14.5645 -14.5629 -14.5589 -14.5581 -14.5575 -14.5569 -14.5563
   -14.5544 -14.5536 -14.5530 -14.5508 -14.5492 -14.5446 -14.5435 -14.5425
   -14.5420 -14.5410 -14.5395 -14.5363 -14.5356 -14.5349 -14.5328 -14.5325
   -14.5312 -14.5301 -14.5291 -14.5275 -14.5264 -14.5249 -14.5244 -14.5233
   -14.5232 -14.5224 -14.5218 -14.5206 -14.5188 -14.5165 -14.5158 -14.5139
   -14.5106 -14.5088 -14.5079 -14.5073 -14.5053 -14.5047 -14.5038 -14.5028
   -14.5007 -14.4989 -14.4982 -14.4960 -14.4952 -14.4949 -14.4940 -14.4930
   -14.4919 -14.4898 -14.4877 -14.4836 -14.4783 -14.4781 -14.4748 -14.4746
   -14.4732 -14.4729 -14.4708 -14.4683 -14.4584 -14.4565 -14.4454 -14.4437
   -14.4411 -14.4351 -14.4346 -14.4337 -14.4310 -14.4303 -14.4290 -14.4267
   -14.4231 -14.4189 -14.4164 -14.4118 -14.4078 -14.3914 -14.3799 -14.3669
    -0.5727  -0.4067  -0.3534  -0.3168  -0.1619  -0.1455  -0.0677   0.0938
     0.3712   0.4012   0.4249   0.5519   0.5740   0.6392   0.6590   0.6807
     0.7403   0.7943   0.8325   0.8814   0.9765   0.9978   1.0426   1.1047
     1.1462   1.1731   1.2043   1.2390   1.2753   1.3231   1.3426   1.3853
     1.4145   1.4274   1.4642   1.5237   1.5780   1.5969   1.7872   1.8161
     1.8332   1.8650   1.8906   1.9003   1.9818   2.0002   2.0254   2.0336
     2.0736   2.0821   2.1500   2.2496   2.2674   2.2765   2.2910   2.3203
     2.3302   2.3844   2.3984   2.4198   2.4322   2.4519   2.4721   2.4896
     2.5070   2.5409   2.5584   2.5856   2.6227   2.6378   2.6624   2.6777
     2.7724   2.8121   2.8611   2.8831

     the Fermi energy is     1.2618 ev

!    total energy              =   -6102.05673725 Ry

     total all-electron energy =    -65028.947175 Ry
     estimated scf accuracy    <       0.00000044 Ry
     smearing contrib. (-TS)   =      -0.02782419 Ry
     internal energy E=F+TS    =   -6102.02891306 Ry

     The total energy is F=E-TS. E is the sum of the following terms:
     one-electron contribution =   -2257.92781235 Ry
     hartree contribution      =    1176.19396044 Ry
     xc contribution           =    -602.51083409 Ry
     ewald contribution        =   -1425.12197863 Ry
     one-center paw contrib.   =   -2992.66224843 Ry

     convergence has been achieved in  16 iterations

     Forces acting on atoms (cartesian axes, Ry/au):

     atom    1 type  1   force =    -0.00471438   -0.00748521    0.00744595
     atom    2 type  1   force =     0.00523090   -0.00315862    0.00252541
     atom    3 type  1   force =     0.00015863    0.00136587    0.00271534
     atom    4 type  1   force =    -0.00054618    0.00113007   -0.00116596
     atom    5 type  1   force =     0.00199246    0.00265329    0.00295546
     atom    6 type  1   force =     0.00000302    0.01076123    0.01132899
     atom    7 type  1   force =    -0.00717371   -0.01177128   -0.02004311
     atom    8 type  1   force =    -0.00743720   -0.00499559    0.00255189
     atom    9 type  1   force =    -0.00347711   -0.00149644    0.00215689
     atom   10 type  1   force =     0.00248020    0.00312205    0.00178781
     atom   11 type  1   force =    -0.00616991   -0.00073844    0.00288897
     atom   12 type  1   force =     0.01055632    0.00090548   -0.00039258
     atom   13 type  1   force =    -0.00457662   -0.00116983   -0.00895503
     atom   14 type  1   force =     0.00537425    0.00670906   -0.00057809
     atom   15 type  1   force =     0.00043359   -0.00153131    0.00102620
     atom   16 type  1   force =     0.00375655   -0.00918795   -0.00518759
     atom   17 type  1   force =    -0.00282666    0.00095134   -0.00694691
     atom   18 type  1   force =    -0.00096068   -0.00262930   -0.00241417
     atom   19 type  1   force =    -0.00461645    0.00901177   -0.00003822
     atom   20 type  1   force =    -0.01102639    0.00048098   -0.00226073
     atom   21 type  1   force =     0.00948628    0.00195552   -0.00085913
     atom   22 type  1   force =     0.00089045   -0.00148650   -0.00047394
     atom   23 type  1   force =     0.00272712   -0.00398124   -0.00607357
     atom   24 type  1   force =    -0.00230607   -0.00006431   -0.01111162
     atom   25 type  1   force =    -0.00310035    0.00366295   -0.00720544
     atom   26 type  1   force =     0.00222041   -0.00678592    0.00554427
     atom   27 type  1   force =    -0.00303404    0.00365051   -0.00617123
     atom   28 type  1   force =     0.02003839    0.00346161    0.00078707
     atom   29 type  1   force =     0.00082701    0.00264582    0.00722710
     atom   30 type  1   force =    -0.00684584   -0.00508643    0.00279629
     atom   31 type  1   force =     0.00325462    0.00498673   -0.00475524
     atom   32 type  1   force =    -0.00050094    0.00195194    0.00377234
     atom   33 type  1   force =    -0.00039587    0.00851316   -0.01220111
     atom   34 type  1   force =    -0.00639185   -0.00260006   -0.01315577
     atom   35 type  1   force =     0.01001095   -0.00102908    0.00340301
     atom   36 type  1   force =     0.00351739   -0.02211304   -0.01058308
     atom   37 type  1   force =    -0.00301094    0.00015958    0.01156585
     atom   38 type  1   force =    -0.01264703   -0.00229428    0.00261354
     atom   39 type  1   force =     0.00247586    0.01218550   -0.01382525
     atom   40 type  1   force =    -0.01011851   -0.00732504    0.01965929
     atom   41 type  1   force =    -0.01090010   -0.00181628    0.00874084
     atom   42 type  1   force =     0.00538247    0.00327782   -0.00384550
     atom   43 type  1   force =     0.00420282    0.00409828   -0.00448873
     atom   44 type  1   force =    -0.00137742    0.00280175    0.00579387
     atom   45 type  1   force =     0.01197889   -0.00173337    0.00107792
     atom   46 type  1   force =     0.00097701   -0.00441214    0.00126837
     atom   47 type  1   force =    -0.00698037    0.00513140    0.01588163
     atom   48 type  1   force =     0.00716475   -0.00507791    0.00338259
     atom   49 type  1   force =    -0.00180967    0.00064448   -0.00031045
     atom   50 type  1   force =     0.00303822   -0.00093513    0.01362269
     atom   51 type  1   force =     0.01265820   -0.00405012   -0.00605897
     atom   52 type  1   force =     0.00105902    0.00434251   -0.00259747
     atom   53 type  1   force =    -0.00187714    0.00482758    0.00416835
     atom   54 type  1   force =    -0.00707436    0.00956654    0.00301096

     Total force =     0.083743     Total SCF correction =     0.001662

     Computing stress (Cartesian axis) and pressure

          total   stress  (Ry/bohr**3)                   (kbar)     P=        0.77
   0.00000714   0.00000406  -0.00000536            1.05        0.60       -0.79
   0.00000406   0.00000183  -0.00000145            0.60        0.27       -0.21
  -0.00000536  -0.00000145   0.00000664           -0.79       -0.21        0.98

     General routines

     Parallel routines

   This run was terminated on:   6:45:34  24Mar2024

   JOB DONE.